(set-info :source |printed by MathSAT|)
(declare-fun call__PRODUCER_CONSUMMER_.ite11.next () Int)
(declare-fun call__PRODUCER_CONSUMMER_.flby5 () Int)
(declare-fun o1 () Int)
(declare-fun _OK_.next () Bool)
(declare-fun env.next () Bool)
(declare-fun call_First.First.next () Int)
(declare-fun call__PRODUCER_CONSUMMER_.flby3 () Int)
(declare-fun call__PRODUCER_CONSUMMER_.flby () Int)
(declare-fun a.next () Int)
(declare-fun param_etat2 () Bool)
(declare-fun call_excludes3.excludes () Bool)
(declare-fun call_FirstB.First () Bool)
(declare-fun call__PRODUCER_CONSUMMER_.ite4 () Int)
(declare-fun call_FirstB.flby.next () Bool)
(declare-fun call_First2.First () Int)
(declare-fun call__PRODUCER_CONSUMMER_.a () Int)
(declare-fun param_etat2.next () Bool)
(declare-fun call__PRODUCER_CONSUMMER_.garde3.next () Bool)
(declare-fun call_Sofar.flby () Bool)
(declare-fun call__PRODUCER_CONSUMMER_.flby3.next () Int)
(declare-fun param_etat3 () Bool)
(declare-fun param_etat1 () Bool)
(declare-fun call__PRODUCER_CONSUMMER_.flby5.next () Int)
(declare-fun call__PRODUCER_CONSUMMER_.ite3 () Int)
(declare-fun call__PRODUCER_CONSUMMER_.o2.next () Int)
(declare-fun call__PRODUCER_CONSUMMER_.ite10.next () Int)
(declare-fun i () Int)
(declare-fun call__PRODUCER_CONSUMMER_.b.next () Int)
(declare-fun b () Int)
(declare-fun call__PRODUCER_CONSUMMER_.ite5.next () Int)
(declare-fun call__PRODUCER_CONSUMMER_.a.next () Int)
(declare-fun call_First2.First.next () Int)
(declare-fun call_Sofar.Sofar.next () Bool)
(declare-fun call__PRODUCER_CONSUMMER_.o1 () Int)
(declare-fun call_Sofar.flby.next () Bool)
(declare-fun call_First.flby.next () Int)
(declare-fun call__PRODUCER_CONSUMMER_.ite7 () Int)
(declare-fun call__PRODUCER_CONSUMMER_.flby2 () Int)
(declare-fun call__PRODUCER_CONSUMMER_.flby4 () Int)
(declare-fun call__PRODUCER_CONSUMMER_.ite2.next () Int)
(declare-fun call__PRODUCER_CONSUMMER_.ite.next () Int)
(declare-fun call__PRODUCER_CONSUMMER_.garde1.next () Bool)
(declare-fun call__PRODUCER_CONSUMMER_.flby4.next () Int)
(declare-fun b.next () Int)
(declare-fun o2.next () Int)
(declare-fun param_etat3.next () Bool)
(declare-fun i.next () Int)
(declare-fun call__PRODUCER_CONSUMMER_.ite6 () Int)
(declare-fun call_excludes3.excludes.next () Bool)
(declare-fun call_First.First () Int)
(declare-fun a () Int)
(declare-fun call__PRODUCER_CONSUMMER_.ite3.next () Int)
(declare-fun call__PRODUCER_CONSUMMER_.o2 () Int)
(declare-fun call__PRODUCER_CONSUMMER_.flby2.next () Int)
(declare-fun call_FirstB.First.next () Bool)
(declare-fun call__PRODUCER_CONSUMMER_.ite8.next () Int)
(declare-fun call__PRODUCER_CONSUMMER_.ite9.next () Int)
(declare-fun call__PRODUCER_CONSUMMER_.ite4.next () Int)
(declare-fun call_First2.flby.next () Int)
(declare-fun call_First2.flby () Int)
(declare-fun call__PRODUCER_CONSUMMER_.ite5 () Int)
(declare-fun call__PRODUCER_CONSUMMER_.ite7.next () Int)
(declare-fun call_Sofar.Sofar () Bool)
(declare-fun env () Bool)
(declare-fun call_First.flby () Int)
(declare-fun call__PRODUCER_CONSUMMER_.i.next () Int)
(declare-fun call__PRODUCER_CONSUMMER_.b () Int)
(declare-fun o2 () Int)
(declare-fun call__PRODUCER_CONSUMMER_.ite6.next () Int)
(declare-fun call__PRODUCER_CONSUMMER_.garde2.next () Bool)
(declare-fun call__PRODUCER_CONSUMMER_.i () Int)
(declare-fun call__PRODUCER_CONSUMMER_.flby.next () Int)
(declare-fun param_etat1.next () Bool)
(declare-fun o1.next () Int)
(declare-fun _OK_ () Bool)
(declare-fun call__PRODUCER_CONSUMMER_.o1.next () Int)
(declare-fun call_FirstB.flby () Bool)
(define-fun .def_712 () Bool (= call_First2.flby.next call_First2.First.next))
(define-fun .def_710 () Bool (= call_First.flby.next call_First.First.next))
(define-fun .def_708 () Bool (= call_FirstB.flby.next call_FirstB.First.next))
(define-fun .def_706 () Bool (= call_Sofar.flby.next call_Sofar.Sofar.next))
(define-fun .def_700 () Bool (and param_etat1.next param_etat2.next))
(define-fun .def_699 () Bool (and param_etat3.next param_etat1.next))
(define-fun .def_701 () Bool (or .def_699 .def_700))
(define-fun .def_698 () Bool (and param_etat3.next param_etat2.next))
(define-fun .def_702 () Bool (or .def_698 .def_701))
(define-fun .def_703 () Bool (not .def_702))
(define-fun .def_704 () Bool (= call_excludes3.excludes.next .def_703))
(define-fun .def_696 () Bool (= call__PRODUCER_CONSUMMER_.flby5.next call__PRODUCER_CONSUMMER_.o2.next))
(define-fun .def_694 () Bool (= call__PRODUCER_CONSUMMER_.flby4.next call__PRODUCER_CONSUMMER_.o1.next))
(define-fun .def_692 () Bool (= call__PRODUCER_CONSUMMER_.flby3.next call__PRODUCER_CONSUMMER_.a.next))
(define-fun .def_690 () Bool (= call__PRODUCER_CONSUMMER_.flby2.next call__PRODUCER_CONSUMMER_.b.next))
(define-fun .def_688 () Bool (= call__PRODUCER_CONSUMMER_.flby.next call__PRODUCER_CONSUMMER_.i.next))
(define-fun .def_684 () Bool (= call__PRODUCER_CONSUMMER_.ite4.next call__PRODUCER_CONSUMMER_.ite6.next))
(define-fun .def_529 () Bool (not param_etat2.next))
(define-fun .def_685 () Bool (or .def_529 .def_684))
(define-fun .def_682 () Bool (= call__PRODUCER_CONSUMMER_.ite5.next call__PRODUCER_CONSUMMER_.ite6.next))
(define-fun .def_683 () Bool (or param_etat2.next .def_682))
(define-fun .def_686 () Bool (and .def_683 .def_685))
(define-fun .def_678 () Bool (= call__PRODUCER_CONSUMMER_.ite3.next call__PRODUCER_CONSUMMER_.ite7.next))
(define-fun .def_519 () Bool (not param_etat1.next))
(define-fun .def_679 () Bool (or .def_519 .def_678))
(define-fun .def_676 () Bool (= call__PRODUCER_CONSUMMER_.ite7.next call__PRODUCER_CONSUMMER_.ite6.next))
(define-fun .def_677 () Bool (or param_etat1.next .def_676))
(define-fun .def_680 () Bool (and .def_677 .def_679))
(define-fun .def_670 () Bool (<= call_First.First.next 0))
(define-fun .def_671 () Bool (not .def_670))
(define-fun .def_668 () Bool (and call_Sofar.Sofar.next call_FirstB.First.next))
(define-fun .def_672 () Bool (and .def_668 .def_671))
(define-fun .def_673 () Bool (= env.next .def_672))
(define-fun .def_664 () Bool (= o2.next call__PRODUCER_CONSUMMER_.o2.next))
(define-fun .def_661 () Bool (= o1.next call__PRODUCER_CONSUMMER_.o1.next))
(define-fun .def_658 () Bool (= a.next call__PRODUCER_CONSUMMER_.a.next))
(define-fun .def_654 () Bool (= b.next call__PRODUCER_CONSUMMER_.b.next))
(define-fun .def_650 () Bool (= i.next call__PRODUCER_CONSUMMER_.i.next))
(define-fun .def_641 () Int (* (- 1) call_First2.First.next))
(define-fun .def_642 () Int (* (- 1) o2.next))
(define-fun .def_643 () Int (+ .def_642 .def_641))
(define-fun .def_644 () Int (+ o1.next .def_643))
(define-fun .def_645 () Bool (<= .def_644 0))
(define-fun .def_634 () Bool (not env.next))
(define-fun .def_646 () Bool (or .def_634 .def_645))
(define-fun .def_647 () Bool (= _OK_.next .def_646))
(define-fun .def_651 () Bool (and .def_647 .def_650))
(define-fun .def_655 () Bool (and .def_651 .def_654))
(define-fun .def_659 () Bool (and .def_655 .def_658))
(define-fun .def_662 () Bool (and .def_659 .def_661))
(define-fun .def_665 () Bool (and .def_662 .def_664))
(define-fun .def_674 () Bool (and .def_665 .def_673))
(define-fun .def_681 () Bool (and .def_674 .def_680))
(define-fun .def_687 () Bool (and .def_681 .def_686))
(define-fun .def_689 () Bool (and .def_687 .def_688))
(define-fun .def_691 () Bool (and .def_689 .def_690))
(define-fun .def_693 () Bool (and .def_691 .def_692))
(define-fun .def_695 () Bool (and .def_693 .def_694))
(define-fun .def_697 () Bool (and .def_695 .def_696))
(define-fun .def_705 () Bool (and .def_697 .def_704))
(define-fun .def_707 () Bool (and .def_705 .def_706))
(define-fun .def_709 () Bool (and .def_707 .def_708))
(define-fun .def_711 () Bool (and .def_709 .def_710))
(define-fun .def_713 () Bool (and .def_711 .def_712))
(define-fun .def_501 () Bool (= call_First2.flby call_First2.First))
(define-fun .def_499 () Bool (= call_First.flby call_First.First))
(define-fun .def_497 () Bool (= call_FirstB.flby call_FirstB.First))
(define-fun .def_495 () Bool (= call_Sofar.flby call_Sofar.Sofar))
(define-fun .def_489 () Bool (and param_etat1 param_etat2))
(define-fun .def_488 () Bool (and param_etat3 param_etat1))
(define-fun .def_490 () Bool (or .def_488 .def_489))
(define-fun .def_487 () Bool (and param_etat3 param_etat2))
(define-fun .def_491 () Bool (or .def_487 .def_490))
(define-fun .def_492 () Bool (not .def_491))
(define-fun .def_493 () Bool (= call_excludes3.excludes .def_492))
(define-fun .def_485 () Bool (= call__PRODUCER_CONSUMMER_.flby5 call__PRODUCER_CONSUMMER_.o2))
(define-fun .def_483 () Bool (= call__PRODUCER_CONSUMMER_.flby4 call__PRODUCER_CONSUMMER_.o1))
(define-fun .def_481 () Bool (= call__PRODUCER_CONSUMMER_.a call__PRODUCER_CONSUMMER_.flby3))
(define-fun .def_479 () Bool (= call__PRODUCER_CONSUMMER_.flby2 call__PRODUCER_CONSUMMER_.b))
(define-fun .def_477 () Bool (= call__PRODUCER_CONSUMMER_.flby call__PRODUCER_CONSUMMER_.i))
(define-fun .def_473 () Bool (= call__PRODUCER_CONSUMMER_.ite6 call__PRODUCER_CONSUMMER_.ite4))
(define-fun .def_381 () Bool (not param_etat2))
(define-fun .def_474 () Bool (or .def_381 .def_473))
(define-fun .def_470 () Bool (= call__PRODUCER_CONSUMMER_.ite6 call__PRODUCER_CONSUMMER_.ite5))
(define-fun .def_471 () Bool (or param_etat2 .def_470))
(define-fun .def_475 () Bool (and .def_471 .def_474))
(define-fun .def_465 () Bool (= call__PRODUCER_CONSUMMER_.ite7 call__PRODUCER_CONSUMMER_.ite3))
(define-fun .def_374 () Bool (not param_etat1))
(define-fun .def_466 () Bool (or .def_374 .def_465))
(define-fun .def_462 () Bool (= call__PRODUCER_CONSUMMER_.ite7 call__PRODUCER_CONSUMMER_.ite6))
(define-fun .def_463 () Bool (or param_etat1 .def_462))
(define-fun .def_467 () Bool (and .def_463 .def_466))
(define-fun .def_455 () Bool (<= call_First.First 0))
(define-fun .def_456 () Bool (not .def_455))
(define-fun .def_453 () Bool (and call_Sofar.Sofar call_FirstB.First))
(define-fun .def_457 () Bool (and .def_453 .def_456))
(define-fun .def_458 () Bool (= env .def_457))
(define-fun .def_449 () Bool (= o2 call__PRODUCER_CONSUMMER_.o2))
(define-fun .def_446 () Bool (= o1 call__PRODUCER_CONSUMMER_.o1))
(define-fun .def_443 () Bool (= call__PRODUCER_CONSUMMER_.a a))
(define-fun .def_441 () Bool (= b call__PRODUCER_CONSUMMER_.b))
(define-fun .def_437 () Bool (= i call__PRODUCER_CONSUMMER_.i))
(define-fun .def_428 () Int (* (- 1) call_First2.First))
(define-fun .def_429 () Int (* (- 1) o2))
(define-fun .def_430 () Int (+ .def_429 .def_428))
(define-fun .def_431 () Int (+ o1 .def_430))
(define-fun .def_432 () Bool (<= .def_431 0))
(define-fun .def_421 () Bool (not env))
(define-fun .def_433 () Bool (or .def_421 .def_432))
(define-fun .def_434 () Bool (= _OK_ .def_433))
(define-fun .def_438 () Bool (and .def_434 .def_437))
(define-fun .def_442 () Bool (and .def_438 .def_441))
(define-fun .def_444 () Bool (and .def_442 .def_443))
(define-fun .def_447 () Bool (and .def_444 .def_446))
(define-fun .def_450 () Bool (and .def_447 .def_449))
(define-fun .def_459 () Bool (and .def_450 .def_458))
(define-fun .def_468 () Bool (and .def_459 .def_467))
(define-fun .def_476 () Bool (and .def_468 .def_475))
(define-fun .def_478 () Bool (and .def_476 .def_477))
(define-fun .def_480 () Bool (and .def_478 .def_479))
(define-fun .def_482 () Bool (and .def_480 .def_481))
(define-fun .def_484 () Bool (and .def_482 .def_483))
(define-fun .def_486 () Bool (and .def_484 .def_485))
(define-fun .def_494 () Bool (and .def_486 .def_493))
(define-fun .def_496 () Bool (and .def_494 .def_495))
(define-fun .def_498 () Bool (and .def_496 .def_497))
(define-fun .def_500 () Bool (and .def_498 .def_499))
(define-fun .def_502 () Bool (and .def_500 .def_501))
(define-fun .def_714 () Bool (and .def_502 .def_713))
(define-fun .def_630 () Bool (= call_First2.First call_First2.flby.next))
(define-fun .def_627 () Bool (= call_First.First call_First.flby.next))
(define-fun .def_624 () Bool (= call_FirstB.First call_FirstB.flby.next))
(define-fun .def_614 () Bool (or param_etat1.next param_etat2.next))
(define-fun .def_615 () Bool (or param_etat3.next .def_614))
(define-fun .def_616 () Bool (not .def_615))
(define-fun .def_618 () Bool (or .def_616 call_excludes3.excludes.next))
(define-fun .def_619 () Bool (and call_Sofar.Sofar .def_618))
(define-fun .def_621 () Bool (= .def_619 call_Sofar.flby.next))
(define-fun .def_612 () Bool (= call__PRODUCER_CONSUMMER_.ite11.next call__PRODUCER_CONSUMMER_.flby5.next))
(define-fun .def_609 () Bool (= call__PRODUCER_CONSUMMER_.ite9.next call__PRODUCER_CONSUMMER_.flby4.next))
(define-fun .def_606 () Bool (= call__PRODUCER_CONSUMMER_.a call__PRODUCER_CONSUMMER_.flby3.next))
(define-fun .def_603 () Bool (= call__PRODUCER_CONSUMMER_.ite7.next call__PRODUCER_CONSUMMER_.flby2.next))
(define-fun .def_599 () Bool (= call__PRODUCER_CONSUMMER_.ite2.next call__PRODUCER_CONSUMMER_.flby.next))
(define-fun .def_593 () Bool (<= 1 call__PRODUCER_CONSUMMER_.b))
(define-fun .def_596 () Bool (= call__PRODUCER_CONSUMMER_.garde3.next .def_593))
(define-fun .def_594 () Bool (= call__PRODUCER_CONSUMMER_.garde2.next .def_593))
(define-fun .def_590 () Bool (<= 1 call__PRODUCER_CONSUMMER_.i))
(define-fun .def_591 () Bool (= call__PRODUCER_CONSUMMER_.garde1.next .def_590))
(define-fun .def_584 () Int (* (- 1) call__PRODUCER_CONSUMMER_.ite10.next))
(define-fun .def_585 () Int (+ call__PRODUCER_CONSUMMER_.o2 .def_584))
(define-fun .def_586 () Bool (= .def_585 (- 1)))
(define-fun .def_567 () Bool (not call__PRODUCER_CONSUMMER_.garde3.next))
(define-fun .def_587 () Bool (or .def_567 .def_586))
(define-fun .def_582 () Bool (= call__PRODUCER_CONSUMMER_.o2 call__PRODUCER_CONSUMMER_.ite10.next))
(define-fun .def_583 () Bool (or call__PRODUCER_CONSUMMER_.garde3.next .def_582))
(define-fun .def_588 () Bool (and .def_583 .def_587))
(define-fun .def_576 () Int (* (- 1) call__PRODUCER_CONSUMMER_.ite8.next))
(define-fun .def_577 () Int (+ call__PRODUCER_CONSUMMER_.o1 .def_576))
(define-fun .def_578 () Bool (= .def_577 (- 1)))
(define-fun .def_556 () Bool (not call__PRODUCER_CONSUMMER_.garde2.next))
(define-fun .def_579 () Bool (or .def_556 .def_578))
(define-fun .def_574 () Bool (= call__PRODUCER_CONSUMMER_.o1 call__PRODUCER_CONSUMMER_.ite8.next))
(define-fun .def_575 () Bool (or call__PRODUCER_CONSUMMER_.garde2.next .def_574))
(define-fun .def_580 () Bool (and .def_575 .def_579))
(define-fun .def_570 () Bool (= call__PRODUCER_CONSUMMER_.b call__PRODUCER_CONSUMMER_.ite5.next))
(define-fun .def_571 () Bool (or call__PRODUCER_CONSUMMER_.garde3.next .def_570))
(define-fun .def_563 () Int (* (- 1) call__PRODUCER_CONSUMMER_.ite5.next))
(define-fun .def_564 () Int (+ call__PRODUCER_CONSUMMER_.b .def_563))
(define-fun .def_565 () Bool (= .def_564 1))
(define-fun .def_568 () Bool (or .def_565 .def_567))
(define-fun .def_559 () Bool (= call__PRODUCER_CONSUMMER_.b call__PRODUCER_CONSUMMER_.ite4.next))
(define-fun .def_560 () Bool (or call__PRODUCER_CONSUMMER_.garde2.next .def_559))
(define-fun .def_552 () Int (* (- 1) call__PRODUCER_CONSUMMER_.ite4.next))
(define-fun .def_553 () Int (+ call__PRODUCER_CONSUMMER_.b .def_552))
(define-fun .def_554 () Bool (= .def_553 1))
(define-fun .def_557 () Bool (or .def_554 .def_556))
(define-fun .def_546 () Int (* (- 1) call__PRODUCER_CONSUMMER_.ite3.next))
(define-fun .def_547 () Int (+ call__PRODUCER_CONSUMMER_.b .def_546))
(define-fun .def_548 () Bool (= .def_547 (- 1)))
(define-fun .def_539 () Bool (not call__PRODUCER_CONSUMMER_.garde1.next))
(define-fun .def_549 () Bool (or .def_539 .def_548))
(define-fun .def_544 () Bool (= call__PRODUCER_CONSUMMER_.b call__PRODUCER_CONSUMMER_.ite3.next))
(define-fun .def_545 () Bool (or call__PRODUCER_CONSUMMER_.garde1.next .def_544))
(define-fun .def_550 () Bool (and .def_545 .def_549))
(define-fun .def_558 () Bool (and .def_550 .def_557))
(define-fun .def_561 () Bool (and .def_558 .def_560))
(define-fun .def_569 () Bool (and .def_561 .def_568))
(define-fun .def_572 () Bool (and .def_569 .def_571))
(define-fun .def_536 () Int (* (- 1) call__PRODUCER_CONSUMMER_.ite.next))
(define-fun .def_537 () Int (+ call__PRODUCER_CONSUMMER_.i .def_536))
(define-fun .def_538 () Bool (= .def_537 1))
(define-fun .def_540 () Bool (or .def_538 .def_539))
(define-fun .def_533 () Bool (= call__PRODUCER_CONSUMMER_.i call__PRODUCER_CONSUMMER_.ite.next))
(define-fun .def_535 () Bool (or .def_533 call__PRODUCER_CONSUMMER_.garde1.next))
(define-fun .def_541 () Bool (and .def_535 .def_540))
(define-fun .def_528 () Bool (= call__PRODUCER_CONSUMMER_.ite9.next call__PRODUCER_CONSUMMER_.ite8.next))
(define-fun .def_530 () Bool (or .def_528 .def_529))
(define-fun .def_524 () Bool (= call__PRODUCER_CONSUMMER_.o1 call__PRODUCER_CONSUMMER_.ite9.next))
(define-fun .def_526 () Bool (or .def_524 param_etat2.next))
(define-fun .def_531 () Bool (and .def_526 .def_530))
(define-fun .def_518 () Bool (= call__PRODUCER_CONSUMMER_.ite2.next call__PRODUCER_CONSUMMER_.ite.next))
(define-fun .def_520 () Bool (or .def_518 .def_519))
(define-fun .def_514 () Bool (= call__PRODUCER_CONSUMMER_.i call__PRODUCER_CONSUMMER_.ite2.next))
(define-fun .def_516 () Bool (or .def_514 param_etat1.next))
(define-fun .def_521 () Bool (and .def_516 .def_520))
(define-fun .def_510 () Bool (not param_etat3.next))
(define-fun .def_509 () Bool (= call__PRODUCER_CONSUMMER_.ite11.next call__PRODUCER_CONSUMMER_.ite10.next))
(define-fun .def_511 () Bool (or .def_509 .def_510))
(define-fun .def_505 () Bool (= call__PRODUCER_CONSUMMER_.o2 call__PRODUCER_CONSUMMER_.ite11.next))
(define-fun .def_507 () Bool (or .def_505 param_etat3.next))
(define-fun .def_512 () Bool (and .def_507 .def_511))
(define-fun .def_522 () Bool (and .def_512 .def_521))
(define-fun .def_532 () Bool (and .def_522 .def_531))
(define-fun .def_542 () Bool (and .def_532 .def_541))
(define-fun .def_573 () Bool (and .def_542 .def_572))
(define-fun .def_581 () Bool (and .def_573 .def_580))
(define-fun .def_589 () Bool (and .def_581 .def_588))
(define-fun .def_592 () Bool (and .def_589 .def_591))
(define-fun .def_595 () Bool (and .def_592 .def_594))
(define-fun .def_597 () Bool (and .def_595 .def_596))
(define-fun .def_600 () Bool (and .def_597 .def_599))
(define-fun .def_604 () Bool (and .def_600 .def_603))
(define-fun .def_607 () Bool (and .def_604 .def_606))
(define-fun .def_610 () Bool (and .def_607 .def_609))
(define-fun .def_613 () Bool (and .def_610 .def_612))
(define-fun .def_622 () Bool (and .def_613 .def_621))
(define-fun .def_625 () Bool (and .def_622 .def_624))
(define-fun .def_628 () Bool (and .def_625 .def_627))
(define-fun .def_631 () Bool (and .def_628 .def_630))
(define-fun .def_715 () Bool (and .def_631 .def_714))
(assert .def_715)
